
List of user-set options:

                                    Name   Value                used
                           compl_inf_tol = 1                     yes
                         constr_viol_tol = 1                     yes
                            dual_inf_tol = 1000                  yes
                           linear_solver = ma97                  yes
                              ma86_small = 1e-30                  no
                                  ma86_u = 0.0001                 no
                              ma97_order = best                  yes
                              ma97_small = 1e-30                 yes
                            ma97_switch1 = at_start              yes
                            ma97_switch2 = od_hd_reuse           yes
                                  ma97_u = 1e-06                 yes
                               ma97_umax = 0.5                   yes
                                max_iter = 1000                  yes
                    max_refinement_steps = 20                    yes
                    min_refinement_steps = 5                     yes
                                 mu_init = 1e-06                 yes
           mu_superlinear_decrease_power = 1.25                  yes
                   nlp_scaling_min_value = 1e-08                 yes
                        option_file_name = Preset_Case_414_pf.opt  yes
                             output_file = ./tmp/Preset_Case_414_pf.output  yes
                      print_user_options = yes                   yes
        required_infeasibility_reduction = 1                      no
                                     tol = 1e-08                 yes
                   warm_start_bound_frac = 1e-20                 yes
                   warm_start_bound_push = 1e-20                 yes
                   warm_start_init_point = yes                   yes
              warm_start_mult_bound_push = 1e-20                 yes
                warm_start_mult_init_max = 1e+40                 yes
             warm_start_slack_bound_frac = 1e-20                 yes
             warm_start_slack_bound_push = 1e-20                 yes

******************************************************************************
This program contains Ipopt, a library for large-scale nonlinear optimization.
 Ipopt is released as open source code under the Eclipse Public License (EPL).
         For more information visit http://projects.coin-or.org/Ipopt
******************************************************************************

This is Ipopt version 3.12.10, running with linear solver ma97.

Number of nonzeros in equality constraint Jacobian...:   123443
Number of nonzeros in inequality constraint Jacobian.:      213
Number of nonzeros in Lagrangian Hessian.............:    49069

Total number of variables............................:    31591
                     variables with only lower bounds:    12912
                variables with lower and upper bounds:    15130
                     variables with only upper bounds:        0
Total number of equality constraints.................:    31483
Total number of inequality constraints...............:       25
        inequality constraints with only lower bounds:        4
   inequality constraints with lower and upper bounds:        0
        inequality constraints with only upper bounds:       21

iter    objective    inf_pr   inf_du lg(mu)  ||d||  lg(rg) alpha_du alpha_pr  ls
   0 -5.4382521e+00 4.00e-03 1.02e+00  -6.0 0.00e+00    -  0.00e+00 0.00e+00   0
   1 -5.4398643e+00 1.23e+00 1.05e+01  -6.0 3.27e+05    -  9.85e-05 5.20e-04h  1
   2 -5.4400705e+00 1.22e+00 4.86e+01  -6.0 1.90e+01  -4.0 2.10e-01 1.49e-03f  1
   3 -5.7277162e+00 5.59e+01 2.14e+03  -6.0 7.55e+03    -  1.38e-01 3.68e-01h  1
   4 -5.7278297e+00 5.58e+01 2.14e+03  -6.0 4.62e+00  -0.9 2.21e-02 1.93e-03h  1
   5 -5.7280603e+00 5.56e+01 1.00e+05  -6.0 5.54e+00  -1.3 2.39e-01 4.07e-03h  1
   6 -5.7274555e+00 5.46e+01 4.19e+04  -6.0 2.49e+01  -0.9 4.19e-03 1.73e-02h  1
   7 -5.7194239e+00 5.12e+01 1.93e+05  -6.0 2.50e+01  -1.4 1.71e-02 6.19e-02h  1
   8 -5.7193814e+00 5.12e+01 2.30e+04  -6.0 2.14e+01   0.8 7.20e-04 3.96e-04h  1
   9 -5.7189351e+00 5.10e+01 7.03e+05  -6.0 2.13e+01   0.4 2.15e-04 4.15e-03h  1
iter    objective    inf_pr   inf_du lg(mu)  ||d||  lg(rg) alpha_du alpha_pr  ls
  10 -5.7185939e+00 5.09e+01 7.68e+05  -6.0 1.83e+01   0.8 1.31e-03 1.47e-03h  1
  11 -5.7164259e+00 5.04e+01 1.83e+06  -6.0 1.82e+01   0.3 1.89e-03 9.44e-03h  1
  12 -5.7163205e+00 5.04e+01 1.48e+06  -6.0 1.77e+01  -0.2 7.61e-03 4.88e-04h  1
  13 -5.6773906e+00 4.03e+01 4.45e+06  -6.0 1.75e+01  -0.6 1.37e-02 2.01e-01h  1
  14 -5.6719590e+00 3.69e+01 6.58e+06  -6.0 8.27e+00  -0.2 5.62e-04 8.37e-02h  1
  15 -5.6721994e+00 3.60e+01 6.40e+06  -6.0 4.92e+00  -0.7 2.45e-02 2.29e-02h  1
  16 -5.6757373e+00 3.49e+01 6.46e+06  -6.0 4.71e+00  -1.2 2.78e-03 3.16e-02h  1
  17 -5.6907165e+00 3.42e+01 6.43e+06  -6.0 3.91e+01  -1.6 7.96e-03 2.13e-02h  1
  18 -5.6915409e+00 3.33e+01 5.84e+06  -6.0 2.87e+00  -1.2 7.73e-02 2.56e-02h  1
  19 -5.6892875e+00 3.28e+01 6.04e+06  -6.0 2.61e+00   0.1 1.32e-04 1.49e-02h  1
iter    objective    inf_pr   inf_du lg(mu)  ||d||  lg(rg) alpha_du alpha_pr  ls
  20 -5.6892377e+00 3.27e+01 6.06e+06  -6.0 2.61e+00   1.4 1.37e-03 1.50e-03h  1
  21 -5.6891871e+00 3.26e+01 5.78e+06  -6.0 2.63e+00   1.0 6.52e-03 2.79e-03h  1
  22 -5.6888709e+00 3.25e+01 5.98e+06  -6.0 2.69e+00   1.4 4.47e-03 5.87e-03h  1
  23 -5.6882671e+00 3.14e+01 6.84e+06  -6.0 2.66e+00   0.9 1.00e-02 3.10e-02h  1
  24 -5.6873905e+00 3.09e+01 6.85e+06  -6.0 2.63e+00   1.3 4.62e-02 1.81e-02h  1
  25 -5.6871030e+00 3.03e+01 7.46e+06  -6.0 2.58e+00   0.9 5.40e-02 1.98e-02h  1
  26 -5.6870476e+00 3.02e+01 1.10e+07  -6.0 2.58e+00   1.3 2.53e-02 1.21e-03h  1
  27 -5.6869868e+00 3.01e+01 1.09e+07  -6.0 2.51e+00   0.8 1.09e-06 5.66e-03h  1
  28 -5.6803050e+00 2.62e+01 9.49e+06  -6.0 2.57e+00   1.2 9.69e-02 1.28e-01h  1
  29 -5.6753349e+00 2.43e+01 8.78e+06  -6.0 2.24e+00   0.8 2.25e-02 7.51e-02h  1
iter    objective    inf_pr   inf_du lg(mu)  ||d||  lg(rg) alpha_du alpha_pr  ls
  30 -5.6663800e+00 2.05e+01 7.42e+06  -6.0 2.07e+00   1.2 8.74e-02 1.55e-01h  1
  31 -5.6666391e+00 1.90e+01 6.86e+06  -6.0 1.74e+00   1.6 2.46e-02 7.48e-02h  1
  32 -5.6671323e+00 1.88e+01 6.81e+06  -6.0 1.63e+00   1.1 4.02e-01 8.05e-03h  1
  33 -5.6721580e+00 1.38e+01 5.00e+06  -6.0 1.59e+00   1.6 3.76e-01 2.65e-01h  1
  34 -5.6613369e+00 5.17e+00 1.88e+06  -6.0 1.16e+00   1.1 1.00e+00 6.26e-01h  1
  35 -5.6574912e+00 5.63e-01 3.30e+05  -6.0 4.12e-01   0.6 1.00e+00 8.91e-01h  1
  36 -5.6568169e+00 6.99e-03 1.24e+04  -6.0 6.21e-02   0.1 9.88e-01 9.88e-01h  1
  37 -5.6602201e+00 1.59e-03 2.74e+05  -6.0 3.55e-01  -0.4 4.55e-03 7.72e-01f  1
  38 -5.6602237e+00 1.52e-03 2.61e+05  -6.0 6.30e-04   3.7 7.14e-02 4.73e-02h  1
  39 -5.6603583e+00 7.62e-04 1.31e+05  -6.0 4.17e-04   3.2 8.91e-01 4.98e-01f  1
iter    objective    inf_pr   inf_du lg(mu)  ||d||  lg(rg) alpha_du alpha_pr  ls
  40 -5.6606922e+00 3.39e-04 5.83e+04  -6.0 6.05e-04   2.7 1.00e+00 5.56e-01f  1
  41 -5.6608084e+00 1.93e-04 3.32e+04  -6.0 2.67e-04   2.3 1.00e+00 4.31e-01f  1
  42 -5.6608592e+00 4.62e-05 7.98e+03  -6.0 1.43e-04   1.8 1.00e+00 7.60e-01f  1
  43 -5.6609057e+00 3.36e-06 5.86e+02  -6.0 4.13e-04   1.3 1.00e+00 9.27e-01f  1
  44 -5.6610249e+00 4.26e-08 1.18e+00  -6.0 1.22e-03   0.8 1.00e+00 1.00e+00f  1
  45 -5.6613774e+00 3.72e-07 5.13e-01  -6.0 3.55e-03   0.3 1.00e+00 1.00e+00h  1
  46 -5.6624388e+00 3.35e-06 3.47e-01  -6.0 1.07e-02  -0.1 1.00e+00 1.00e+00h  1
  47 -5.6656024e+00 2.95e-05 2.93e+00  -6.0 3.12e-02  -0.6 5.02e-01 1.00e+00f  1
  48 -5.6724710e+00 1.47e-04 4.59e+00  -6.0 9.45e-02  -1.1 7.71e-01 7.22e-01h  1
  49 -5.6774986e+00 8.73e-05 8.84e+00  -6.0 2.58e-01  -1.6 1.79e-01 4.62e-01f  1
iter    objective    inf_pr   inf_du lg(mu)  ||d||  lg(rg) alpha_du alpha_pr  ls
  50 -5.6870330e+00 2.87e-04 1.05e+01  -6.0 7.43e-01  -2.0 2.45e-01 2.22e-01f  1
  51 -5.7099582e+00 1.73e-03 9.15e+01  -6.0 2.28e+00  -2.5 1.58e-01 2.03e-01f  1
  52 -5.7192071e+00 1.90e-03 8.69e+01  -6.0 6.25e+00  -3.0 9.02e-02 3.12e-02f  1
  53 -5.7218863e+00 2.02e-03 9.97e+01  -6.0 1.12e+01  -3.5 4.50e-02 6.51e-03h  1
  54 -5.7251665e+00 1.99e-03 9.50e+01  -6.0 1.34e+01  -3.9 5.36e-02 1.53e-02h  1
  55 -5.7268854e+00 1.98e-03 9.18e+01  -6.0 4.31e+01  -4.4 1.43e-01 5.47e-03h  1
  56 -5.7314779e+00 1.96e-03 9.02e+01  -6.0 1.38e+02  -4.9 4.84e-02 8.07e-03h  1
  57 -5.7405450e+00 2.20e-03 7.99e+01  -6.0 4.96e+01  -4.5 8.13e-01 4.58e-02f  1
  58 -5.7577556e+00 4.26e-03 7.73e+01  -6.0 1.45e+02  -5.0 5.68e-02 3.31e-02h  1
  59 -5.8601851e+00 7.43e-01 1.85e+02  -6.0 1.27e+02  -5.4 4.32e-02 3.23e-01h  1
iter    objective    inf_pr   inf_du lg(mu)  ||d||  lg(rg) alpha_du alpha_pr  ls
  60 -5.8700168e+00 7.27e-01 1.81e+02  -6.0 2.04e+02  -5.9 3.72e-01 3.64e-02h  1
  61 -5.9437999e+00 2.23e+00 2.86e+02  -6.0 4.27e+01  -5.5 7.38e-02 5.13e-01h  1
  62 -6.0334503e+00 5.88e+00 6.39e+02  -6.0 9.67e+01  -6.0 7.35e-01 1.00e+00h  1
  63 -6.0504581e+00 3.75e-01 2.07e+01  -6.0 1.36e+02  -6.4 5.04e-01 1.00e+00h  1
  64 -6.0542858e+00 3.47e-01 2.00e+01  -6.0 1.89e+02  -6.9 1.00e+00 7.64e-02h  1
  65 -6.0922537e+00 5.12e-01 1.31e+01  -6.0 3.30e+02  -7.4 2.16e-01 4.34e-01h  1
  66 -6.1051730e+00 4.37e-01 1.26e+01  -6.0 4.74e+02  -7.9 8.05e-01 2.24e-01h  1
  67 -6.1451978e+00 1.11e+01 9.84e+01  -6.0 1.64e+03  -8.3 1.56e-01 5.41e-01h  1
  68 -6.1550704e+00 4.83e+01 5.91e+02  -6.0 1.55e+04    -  1.62e-02 8.93e-02h  1
  69 -6.1574299e+00 4.76e+01 9.81e+02  -6.0 1.36e+04    -  3.38e-02 1.63e-02h  1
iter    objective    inf_pr   inf_du lg(mu)  ||d||  lg(rg) alpha_du alpha_pr  ls
  70 -6.1588380e+00 4.68e+01 2.00e+04  -6.0 4.31e+03    -  2.07e-01 1.86e-02h  1
  71 -6.1708670e+00 3.83e+01 3.23e+03  -6.0 2.99e+03    -  1.30e-02 2.14e-01h  1
  72 -6.1799607e+00 3.09e+01 5.18e+03  -6.0 2.22e+03    -  2.86e-01 2.60e-01h  1
  73 -6.1823962e+00 2.89e+01 3.05e+04  -6.0 1.48e+03    -  2.25e-01 6.96e-02h  1
  74 -6.1826747e+00 2.87e+01 3.00e+04  -6.0 2.93e+03    -  4.62e-03 6.92e-03h  1
  75 -6.1866777e+00 2.42e+01 1.97e+04  -6.0 1.49e+03    -  2.45e-01 2.61e-01h  1
  76 -6.1901746e+00 2.59e+01 1.58e+04  -6.0 2.36e+03    -  2.80e-01 2.76e-01h  1
  77 -6.1906637e+00 2.56e+01 2.86e+06  -6.0 4.93e+03    -  1.40e-03 1.66e-02h  1
  78 -6.1912955e+00 2.48e+01 2.73e+06  -6.0 3.16e+03    -  7.37e-02 4.46e-02h  1
  79 -6.1919117e+00 2.41e+01 2.62e+06  -6.0 3.17e+03    -  4.08e-03 4.54e-02h  1
iter    objective    inf_pr   inf_du lg(mu)  ||d||  lg(rg) alpha_du alpha_pr  ls
  80 -6.1926202e+00 2.34e+01 2.48e+06  -6.0 3.21e+03    -  6.76e-03 5.31e-02h  1
  81 -6.1932081e+00 2.27e+01 2.38e+06  -6.0 3.38e+03    -  1.37e-02 4.43e-02h  1
  82 -6.1932374e+00 2.26e+01 2.36e+06  -6.0 1.99e+03    -  2.46e-04 7.97e-03h  1
  83 -6.1932689e+00 2.26e+01 2.36e+06  -6.0 2.85e+04    -  3.56e-03 5.72e-04h  1
  84 -6.1932630e+00 2.25e+01 2.35e+06  -6.0 9.05e+02    -  2.23e-03 5.82e-04h  1
  85 -6.1934118e+00 2.21e+01 2.31e+06  -6.0 4.81e+02    -  1.61e-02 1.83e-02h  1
  86 -6.1966917e+00 1.35e+01 1.37e+06  -6.0 3.90e+02    -  7.78e-02 4.11e-01f  1
  87 -6.1967600e+00 1.33e+01 1.35e+06  -6.0 1.02e+02  -3.4 2.48e-04 1.14e-02h  1
  88 -6.1969128e+00 1.06e+01 1.08e+06  -6.0 1.71e+00  -3.0 1.32e-02 2.05e-01h  1
  89 -6.1972789e+00 2.05e-03 6.56e+04  -6.0 1.36e+00  -3.5 2.07e-01 1.00e+00h  1
iter    objective    inf_pr   inf_du lg(mu)  ||d||  lg(rg) alpha_du alpha_pr  ls
  90 -6.1972946e+00 1.23e-05 1.04e-01  -6.0 1.70e-01  -3.9 1.00e+00 1.00e+00h  1
  91 -6.1973245e+00 7.17e-06 5.95e-02  -6.0 4.26e-01  -4.4 1.00e+00 1.00e+00h  1
  92 -6.1973776e+00 4.96e-05 1.22e-03  -6.0 1.31e+00  -4.9 1.00e+00 1.00e+00h  1
  93 -6.1975312e+00 4.42e-04 1.05e-02  -6.0 3.90e+00  -5.4 1.00e+00 1.00e+00h  1
  94 -6.1979866e+00 3.92e-03 7.15e-02  -6.0 1.16e+01  -5.8 1.00e+00 1.00e+00h  1
  95 -6.1993863e+00 3.63e-02 3.62e-01  -6.0 3.53e+01  -6.3 1.00e+00 1.00e+00h  1
  96 -6.2044531e+00 4.27e-01 1.99e+00  -6.0 1.21e+02  -6.8 1.00e+00 1.00e+00h  1
  97 -6.2128412e+00 1.14e+00 5.41e+00  -6.0 6.67e+02  -7.3 3.24e-01 2.54e-01h  1
  98 -6.2146096e+00 5.73e+00 7.28e+02  -6.0 1.46e+03    -  3.82e-01 3.79e-01h  1
  99 -6.2206728e+00 5.49e+00 1.24e+05  -6.0 1.33e+03    -  2.87e-01 1.13e-01h  1
iter    objective    inf_pr   inf_du lg(mu)  ||d||  lg(rg) alpha_du alpha_pr  ls
 100 -6.2346015e+00 1.42e+01 1.78e+05  -6.0 1.04e+03    -  3.16e-01 8.30e-01h  1
 101 -6.2390815e+00 1.15e+01 4.06e+05  -6.0 3.94e+02    -  1.74e-02 2.00e-01h  1
 102r-6.2390815e+00 1.15e+01 1.00e+03   1.0 0.00e+00    -  0.00e+00 1.23e-07R  2
 103r-6.2601272e+00 1.15e+01 1.00e+03   1.0 4.11e+04    -  5.15e-07 2.45e-07f  1
 104 -6.2596604e+00 1.12e+01 1.82e+04  -6.0 1.05e+01    -  1.14e-06 2.07e-02h  1
 105 -6.2586190e+00 1.07e+01 1.73e+04  -6.0 1.04e+01    -  2.26e-02 4.65e-02h  1
 106 -6.2570427e+00 9.93e+00 1.61e+04  -6.0 1.01e+01    -  1.75e-01 7.35e-02h  1
 107 -6.2504355e+00 6.67e+00 1.08e+04  -6.0 9.66e+00    -  2.06e-01 3.28e-01h  1
 108 -6.2418285e+00 2.65e+00 4.29e+03  -6.0 6.99e+00    -  5.22e-01 6.02e-01h  1
 109 -6.2359591e+00 1.86e-03 1.06e+01  -6.0 3.63e+00    -  9.25e-01 1.00e+00h  1
iter    objective    inf_pr   inf_du lg(mu)  ||d||  lg(rg) alpha_du alpha_pr  ls
 110 -6.2376365e+00 6.81e-03 6.57e+00  -6.0 5.12e+00    -  8.95e-01 1.00e+00h  1
 111 -6.2379376e+00 1.43e-02 2.64e+00  -6.0 2.82e+01    -  9.40e-01 2.62e-01h  1
 112 -6.2386224e+00 6.47e-02 7.90e-02  -6.0 2.05e+01  -5.9 9.87e-01 1.00e+00f  1
 113 -6.2402414e+00 4.20e-02 7.18e-01  -6.0 3.61e+01  -6.4 9.97e-01 1.00e+00h  1
 114 -6.2425416e+00 1.27e-01 1.36e+00  -6.0 6.31e+01  -6.9 8.72e-01 1.00e+00h  1
 115 -6.2439790e+00 1.56e-01 7.34e-01  -6.0 7.01e+01  -7.4 1.00e+00 1.00e+00h  1
 116 -6.2435622e+00 9.39e-03 1.13e-01  -6.0 1.74e+01  -6.9 1.00e+00 1.00e+00h  1
 117 -6.2436646e+00 1.09e-01 1.76e+01  -6.0 8.12e+01  -7.4 5.86e-01 1.00e+00h  1
 118 -6.2441305e+00 3.10e-02 4.26e-01  -6.0 4.32e+01  -7.0 1.00e+00 1.00e+00h  1
 119 -6.2486575e+00 3.09e+00 6.06e+01  -6.0 9.95e+02  -7.5 1.17e-01 4.34e-01h  1
iter    objective    inf_pr   inf_du lg(mu)  ||d||  lg(rg) alpha_du alpha_pr  ls
 120 -6.2693835e+00 5.64e+00 9.02e+01  -6.0 2.23e+03  -8.0 1.21e-01 2.84e-01h  1
 121 -6.2799501e+00 4.36e+00 7.92e+01  -6.0 2.08e+03    -  4.77e-02 2.42e-01h  1
 122 -6.2941389e+00 6.00e-01 7.40e+01  -6.0 1.05e+03  -8.4 6.38e-01 9.24e-01h  1
 123 -6.2962963e+00 7.15e+00 2.34e+02  -6.0 8.09e+02    -  3.76e-01 9.96e-01h  1
 124 -6.2944170e+00 4.39e+00 8.61e+00  -6.0 5.45e+02    -  4.44e-01 1.00e+00h  1
 125 -6.2939931e+00 4.04e-03 4.71e-02  -6.0 9.19e+00    -  1.00e+00 1.00e+00h  1
 126 -6.2940569e+00 7.86e-01 8.04e+00  -6.0 4.59e+02    -  1.00e+00 1.61e-01h  1
 127 -6.2941120e+00 1.24e-01 2.13e-02  -6.0 8.28e+01    -  1.00e+00 1.00e+00h  1
 128 -6.2942928e+00 1.56e+00 9.97e+00  -6.0 8.13e+02    -  1.00e+00 3.92e-01h  1
 129 -6.2942785e+00 1.63e+00 7.51e+00  -6.0 9.61e+02    -  7.67e-02 1.52e-01h  1
iter    objective    inf_pr   inf_du lg(mu)  ||d||  lg(rg) alpha_du alpha_pr  ls
 130 -6.2943001e+00 3.27e+00 7.45e+00  -6.0 5.67e+02    -  1.00e+00 5.00e-01h  2
 131 -6.2942530e+00 1.32e+00 2.03e+00  -6.0 3.02e+02    -  8.62e-01 1.00e+00h  1
 132 -6.2942127e+00 5.62e-01 1.71e-01  -6.0 1.32e+02    -  7.35e-01 1.00e+00h  1
 133 -6.2941997e+00 1.82e-01 7.49e-03  -6.0 5.03e+01    -  1.00e+00 1.00e+00h  1
 134 -6.2941977e+00 3.29e-03 9.57e-05  -6.0 6.13e+00    -  1.00e+00 1.00e+00h  1
 135 -6.2941976e+00 2.07e-06 6.25e-08  -6.0 1.51e-01    -  1.00e+00 1.00e+00h  1
 136 -6.2942589e+00 7.74e-02 9.44e+01  -7.5 1.15e+02    -  9.15e-01 5.89e-01h  1
 137 -6.2942772e+00 4.29e-02 1.66e+01  -7.5 5.03e+01    -  1.00e+00 8.60e-01h  1
 138 -6.2942759e+00 6.13e-04 2.77e-02  -7.5 5.95e+00    -  1.00e+00 1.00e+00h  1
 139 -6.2942759e+00 4.00e-10 3.29e-06  -7.5 4.29e-03    -  1.00e+00 1.00e+00h  1
iter    objective    inf_pr   inf_du lg(mu)  ||d||  lg(rg) alpha_du alpha_pr  ls
 140 -6.2942759e+00 4.25e-10 9.91e-09  -7.5 3.36e-04    -  1.00e+00 1.00e+00h  1
 141 -6.2942773e+00 1.69e-04 8.05e-01  -9.0 3.78e+00    -  9.22e-01 8.34e-01h  1
 142 -6.2942775e+00 6.76e-06 2.11e-01  -9.0 6.29e-01    -  9.52e-01 1.00e+00f  1
 143 -6.2942775e+00 2.85e-10 5.40e-09  -9.0 1.04e-04    -  1.00e+00 1.00e+00h  1

Number of Iterations....: 143

                                   (scaled)                 (unscaled)
Objective...............:  -4.9174043219786707e+00   -6.2942775321326989e+00
Dual infeasibility......:   5.3974813171197417e-09    6.9087760859132695e-09
Constraint violation....:   2.8488960225180743e-10    2.8488960225180743e-10
Complementarity.........:   1.4247698802642254e-09    1.8237054467382086e-09
Overall NLP error.......:   5.3974813171197417e-09    6.9087760859132695e-09


Number of objective function evaluations             = 148
Number of objective gradient evaluations             = 144
Number of equality constraint evaluations            = 148
Number of inequality constraint evaluations          = 148
Number of equality constraint Jacobian evaluations   = 145
Number of inequality constraint Jacobian evaluations = 145
Number of Lagrangian Hessian evaluations             = 143
Total CPU secs in IPOPT (w/o function evaluations)   =    406.531
Total CPU secs in NLP function evaluations           =      5.276

EXIT: Optimal Solution Found.
